Route #1: 26 37 24 6 44 1
Route #2: 23 28 7 11 40 30 19 34 27
Route #3: 29 43 18 17 13
Route #4: 3 10 8 41 33 21 5 20 32
Route #5: 9 22 16 4 42 36 39 12
Route #6: 15 25 2 38 31 35 14
Cost 948
Time 0.062468
